
Gurobi 8.1.0 (win64, Python) logging started 03/04/19 15:07:07

Academic license - for non-commercial use only
Optimize a model with 3 rows, 4 columns and 9 nonzeros
Coefficient statistics:
  Matrix range     [1e+00, 3e+02]
  Objective range  [4e+03, 5e+03]
  Bounds range     [0e+00, 0e+00]
  RHS range        [1e+00, 2e+03]
Presolve removed 1 rows and 0 columns
Presolve time: 0.16s
Presolved: 2 rows, 4 columns, 8 nonzeros

Iteration    Objective       Primal Inf.    Dual Inf.      Time
       0    1.2000000e+05   1.587200e+01   0.000000e+00      0s
       2    1.1675000e+05   0.000000e+00   0.000000e+00      0s

Solved in 2 iterations and 0.28 seconds
Optimal objective  1.167500000e+05
Optimize a model with 3 rows, 4 columns and 9 nonzeros
Coefficient statistics:
  Matrix range     [1e+00, 3e+02]
  Objective range  [4e+03, 5e+03]
  Bounds range     [0e+00, 0e+00]
  RHS range        [1e+00, 2e+03]
Iteration    Objective       Primal Inf.    Dual Inf.      Time
       0    1.1678400e+05   0.000000e+00   0.000000e+00      0s

Solved in 0 iterations and 0.02 seconds
Optimal objective  1.167840000e+05
Optimize a model with 3 rows, 4 columns and 9 nonzeros
Coefficient statistics:
  Matrix range     [1e+00, 3e+02]
  Objective range  [4e+03, 5e+03]
  Bounds range     [0e+00, 0e+00]
  RHS range        [1e+00, 2e+03]
Iteration    Objective       Primal Inf.    Dual Inf.      Time
       0    1.1678400e+05   0.000000e+00   0.000000e+00      0s

Solved in 0 iterations and 0.03 seconds
Optimal objective  1.167840000e+05
Optimize a model with 3 rows, 4 columns and 9 nonzeros
Coefficient statistics:
  Matrix range     [1e+00, 3e+02]
  Objective range  [4e+03, 5e+03]
  Bounds range     [0e+00, 0e+00]
  RHS range        [1e+00, 2e+03]
Iteration    Objective       Primal Inf.    Dual Inf.      Time
       0    1.1678400e+05   0.000000e+00   0.000000e+00      0s

Solved in 0 iterations and 0.02 seconds
Optimal objective  1.167840000e+05
Optimize a model with 3 rows, 4 columns and 9 nonzeros
Coefficient statistics:
  Matrix range     [1e+00, 3e+02]
  Objective range  [4e+03, 5e+03]
  Bounds range     [0e+00, 0e+00]
  RHS range        [1e+00, 2e+03]
Presolve removed 1 rows and 0 columns
Presolve time: 0.01s
Presolved: 2 rows, 4 columns, 8 nonzeros

Iteration    Objective       Primal Inf.    Dual Inf.      Time
       0    1.2000000e+05   1.587200e+01   0.000000e+00      0s
       2    1.1675000e+05   0.000000e+00   0.000000e+00      0s

Solved in 2 iterations and 0.04 seconds
Optimal objective  1.167500000e+05
Optimize a model with 3 rows, 4 columns and 9 nonzeros
Coefficient statistics:
  Matrix range     [1e+00, 3e+02]
  Objective range  [4e+03, 5e+03]
  Bounds range     [0e+00, 0e+00]
  RHS range        [1e+00, 2e+03]
Presolve removed 1 rows and 0 columns
Presolve time: 0.02s
Presolved: 2 rows, 4 columns, 8 nonzeros

Iteration    Objective       Primal Inf.    Dual Inf.      Time
       0    1.2006000e+05   1.600000e+01   0.000000e+00      0s
       2    1.1678400e+05   0.000000e+00   0.000000e+00      0s

Solved in 2 iterations and 0.03 seconds
Optimal objective  1.167840000e+05

Gurobi 8.1.0 (win64, Python) logging started 03/29/19 19:08:59

Academic license - for non-commercial use only
Optimize a model with 42 rows, 42 columns and 152 nonzeros
Variable types: 6 continuous, 36 integer (36 binary)
Coefficient statistics:
  Matrix range     [1e+00, 1e+04]
  Objective range  [1e+00, 1e+03]
  Bounds range     [1e+00, 1e+00]
  RHS range        [1e+00, 1e+04]
Found heuristic solution: objective 2010.0000000
Presolve removed 5 rows and 6 columns
Presolve time: 0.11s
Presolved: 37 rows, 36 columns, 152 nonzeros
Variable types: 5 continuous, 31 integer (31 binary)

Root relaxation: objective 9.000000e+00, 23 iterations, 0.04 seconds

    Nodes    |    Current Node    |     Objective Bounds      |     Work
 Expl Unexpl |  Obj  Depth IntInf | Incumbent    BestBd   Gap | It/Node Time

     0     0    9.00000    0    4 2010.00000    9.00000   100%     -    0s
H    0     0                       9.0000000    9.00000  0.00%     -    0s

Explored 1 nodes (23 simplex iterations) in 0.44 seconds
Thread count was 4 (of 4 available processors)

Solution count 2: 9 2010 

Optimal solution found (tolerance 1.00e-04)
Best objective 9.000000000000e+00, best bound 9.000000000000e+00, gap 0.0000%
